1 1775 9
2 1656 9
3 1559 9
6 1545 9
11 1476 9
31 1475 9
38 1471 9
69 1451 9
430 1440 9



1 1900 9
2 1592 9
4 1575 9
5 1562 9
6 1558 9
7 1545 9
8 1498 9
15 1495 9
34 1468 9
245 1459 9
248 1453 9
375 1433 9



1 1885 9
2 1667 9
3 1606 9
4 1563 9
8 1517 9
12 1511 9
28 1496 9
34 1494 9
63 1490 9
70 1483 9
73 1471 9
134 1443 9
176 1436 9



1 1899 10
2 1689 10
3 1573 9
4 1537 9
10 1514 9
12 1472 9
87 1469 9
112 1446 9
416 1417 9



1 1761 9
2 1666 9
3 1517 9
30 1496 9
41 1488 9
67 1486 9
100 1477 9
154 1459 9
295 1458 9
394 1443 9
491 1437 9



